p cnf 322 1470
c p weight 132 0 0
c p weight -132 1 0
c p weight 133 1 0
c p weight -133 1 0
c p weight 319 -1 0
c p weight -319 1 0
c p weight 322 0.5 0
322 0
-127 0
-125 0
-123 0
-121 0
-119 0
-117 0
-115 0
-113 0
-111 0
-109 0
-107 0
-105 0
-103 0
-101 0
-99 0
-97 0
-95 0
-93 0
-91 0
-89 0
-87 0
-85 0
-83 0
-81 0
-79 0
-77 0
-75 0
-73 0
-71 0
-69 0
-67 0
-65 0
-63 0
-61 0
-59 0
-57 0
-55 0
-53 0
-51 0
-49 0
-47 0
-45 0
-43 0
-41 0
-39 0
-37 0
-35 0
-33 0
-31 0
-29 0
-27 0
-25 0
-23 0
-21 0
-19 0
-17 0
-15 0
-13 0
-11 0
-9 0
-7 0
-5 0
-3 0
-1 0
128 -127 125 0
128 -127 126 0
-128 127 125 0
-128 127 126 0
128 127 -125 -126 0
-128 -127 -125 -126 0
129 125 -126 0
129 -125 126 0
-129 125 126 0
-129 -125 -126 0
130 131 -128 0
130 -128 129 0
-130 131 128 0
-130 128 129 0
130 -128 -125 0
-130 128 -125 0
130 -131 128 125 -129 0
-130 -131 -128 125 -129 0
131 -125 129 0
-131 125 129 0
-132 129 0
131 -132 -125 0
-131 -132 125 0
131 132 125 -129 0
-131 132 -125 -129 0
-133 129 0
131 -133 125 0
-131 -133 -125 0
131 133 -125 -129 0
-131 133 125 -129 0
134 -130 131 0
134 -130 129 0
-134 130 131 0
-134 130 129 0
134 130 -131 -129 0
-134 -130 -131 -129 0
135 131 -129 0
135 -131 129 0
-135 131 129 0
-135 -131 -129 0
136 -134 131 0
136 -134 124 0
-136 134 131 0
-136 134 124 0
136 -134 123 -135 0
136 -134 -123 135 0
-136 134 123 -135 0
-136 134 -123 135 0
136 134 -131 123 135 -124 0
136 134 -131 -123 -135 -124 0
-136 -134 -131 123 135 -124 0
-136 -134 -131 -123 -135 -124 0
138 131 -123 0
138 -131 123 0
-138 131 123 0
-138 -131 -123 0
137 135 -124 0
137 -135 124 0
-137 135 124 0
-137 -135 -124 0
139 -136 138 0
139 -136 122 0
-139 136 138 0
-139 136 122 0
139 -136 121 -124 0
139 -136 -121 124 0
-139 136 121 -124 0
-139 136 -121 124 0
139 136 -138 121 124 -122 0
139 136 -138 -121 -124 -122 0
-139 -136 -138 121 124 -122 0
-139 -136 -138 -121 -124 -122 0
141 138 -121 0
141 -138 121 0
-141 138 121 0
-141 -138 -121 0
140 124 -122 0
140 -124 122 0
-140 124 122 0
-140 -124 -122 0
142 -139 141 0
142 -139 120 0
-142 139 141 0
-142 139 120 0
142 -139 119 -122 0
142 -139 -119 122 0
-142 139 119 -122 0
-142 139 -119 122 0
142 139 -141 119 122 -120 0
142 139 -141 -119 -122 -120 0
-142 -139 -141 119 122 -120 0
-142 -139 -141 -119 -122 -120 0
144 141 -119 0
144 -141 119 0
-144 141 119 0
-144 -141 -119 0
143 122 -120 0
143 -122 120 0
-143 122 120 0
-143 -122 -120 0
145 -142 144 0
145 -142 118 0
-145 142 144 0
-145 142 118 0
145 -142 117 -120 0
145 -142 -117 120 0
-145 142 117 -120 0
-145 142 -117 120 0
145 142 -144 117 120 -118 0
145 142 -144 -117 -120 -118 0
-145 -142 -144 117 120 -118 0
-145 -142 -144 -117 -120 -118 0
147 144 -117 0
147 -144 117 0
-147 144 117 0
-147 -144 -117 0
146 120 -118 0
146 -120 118 0
-146 120 118 0
-146 -120 -118 0
148 -145 147 0
148 -145 116 0
-148 145 147 0
-148 145 116 0
148 -145 115 -118 0
148 -145 -115 118 0
-148 145 115 -118 0
-148 145 -115 118 0
148 145 -147 115 118 -116 0
148 145 -147 -115 -118 -116 0
-148 -145 -147 115 118 -116 0
-148 -145 -147 -115 -118 -116 0
150 147 -115 0
150 -147 115 0
-150 147 115 0
-150 -147 -115 0
149 118 -116 0
149 -118 116 0
-149 118 116 0
-149 -118 -116 0
151 -148 150 0
151 -148 114 0
-151 148 150 0
-151 148 114 0
151 -148 113 -116 0
151 -148 -113 116 0
-151 148 113 -116 0
-151 148 -113 116 0
151 148 -150 113 116 -114 0
151 148 -150 -113 -116 -114 0
-151 -148 -150 113 116 -114 0
-151 -148 -150 -113 -116 -114 0
153 150 -113 0
153 -150 113 0
-153 150 113 0
-153 -150 -113 0
152 116 -114 0
152 -116 114 0
-152 116 114 0
-152 -116 -114 0
154 -151 153 0
154 -151 112 0
-154 151 153 0
-154 151 112 0
154 -151 111 -114 0
154 -151 -111 114 0
-154 151 111 -114 0
-154 151 -111 114 0
154 151 -153 111 114 -112 0
154 151 -153 -111 -114 -112 0
-154 -151 -153 111 114 -112 0
-154 -151 -153 -111 -114 -112 0
156 153 -111 0
156 -153 111 0
-156 153 111 0
-156 -153 -111 0
155 114 -112 0
155 -114 112 0
-155 114 112 0
-155 -114 -112 0
157 -154 156 0
157 -154 110 0
-157 154 156 0
-157 154 110 0
157 -154 109 -112 0
157 -154 -109 112 0
-157 154 109 -112 0
-157 154 -109 112 0
157 154 -156 109 112 -110 0
157 154 -156 -109 -112 -110 0
-157 -154 -156 109 112 -110 0
-157 -154 -156 -109 -112 -110 0
159 156 -109 0
159 -156 109 0
-159 156 109 0
-159 -156 -109 0
158 112 -110 0
158 -112 110 0
-158 112 110 0
-158 -112 -110 0
160 -157 159 0
160 -157 108 0
-160 157 159 0
-160 157 108 0
160 -157 107 -110 0
160 -157 -107 110 0
-160 157 107 -110 0
-160 157 -107 110 0
160 157 -159 107 110 -108 0
160 157 -159 -107 -110 -108 0
-160 -157 -159 107 110 -108 0
-160 -157 -159 -107 -110 -108 0
162 159 -107 0
162 -159 107 0
-162 159 107 0
-162 -159 -107 0
161 110 -108 0
161 -110 108 0
-161 110 108 0
-161 -110 -108 0
163 -160 162 0
163 -160 106 0
-163 160 162 0
-163 160 106 0
163 -160 105 -108 0
163 -160 -105 108 0
-163 160 105 -108 0
-163 160 -105 108 0
163 160 -162 105 108 -106 0
163 160 -162 -105 -108 -106 0
-163 -160 -162 105 108 -106 0
-163 -160 -162 -105 -108 -106 0
165 162 -105 0
165 -162 105 0
-165 162 105 0
-165 -162 -105 0
164 108 -106 0
164 -108 106 0
-164 108 106 0
-164 -108 -106 0
166 -163 165 0
166 -163 104 0
-166 163 165 0
-166 163 104 0
166 -163 103 -106 0
166 -163 -103 106 0
-166 163 103 -106 0
-166 163 -103 106 0
166 163 -165 103 106 -104 0
166 163 -165 -103 -106 -104 0
-166 -163 -165 103 106 -104 0
-166 -163 -165 -103 -106 -104 0
168 165 -103 0
168 -165 103 0
-168 165 103 0
-168 -165 -103 0
167 106 -104 0
167 -106 104 0
-167 106 104 0
-167 -106 -104 0
169 -166 168 0
169 -166 102 0
-169 166 168 0
-169 166 102 0
169 -166 101 -104 0
169 -166 -101 104 0
-169 166 101 -104 0
-169 166 -101 104 0
169 166 -168 101 104 -102 0
169 166 -168 -101 -104 -102 0
-169 -166 -168 101 104 -102 0
-169 -166 -168 -101 -104 -102 0
171 168 -101 0
171 -168 101 0
-171 168 101 0
-171 -168 -101 0
170 104 -102 0
170 -104 102 0
-170 104 102 0
-170 -104 -102 0
172 -169 171 0
172 -169 100 0
-172 169 171 0
-172 169 100 0
172 -169 99 -102 0
172 -169 -99 102 0
-172 169 99 -102 0
-172 169 -99 102 0
172 169 -171 99 102 -100 0
172 169 -171 -99 -102 -100 0
-172 -169 -171 99 102 -100 0
-172 -169 -171 -99 -102 -100 0
174 171 -99 0
174 -171 99 0
-174 171 99 0
-174 -171 -99 0
173 102 -100 0
173 -102 100 0
-173 102 100 0
-173 -102 -100 0
175 -172 174 0
175 -172 98 0
-175 172 174 0
-175 172 98 0
175 -172 97 -100 0
175 -172 -97 100 0
-175 172 97 -100 0
-175 172 -97 100 0
175 172 -174 97 100 -98 0
175 172 -174 -97 -100 -98 0
-175 -172 -174 97 100 -98 0
-175 -172 -174 -97 -100 -98 0
177 174 -97 0
177 -174 97 0
-177 174 97 0
-177 -174 -97 0
176 100 -98 0
176 -100 98 0
-176 100 98 0
-176 -100 -98 0
178 -175 177 0
178 -175 96 0
-178 175 177 0
-178 175 96 0
178 -175 95 -98 0
178 -175 -95 98 0
-178 175 95 -98 0
-178 175 -95 98 0
178 175 -177 95 98 -96 0
178 175 -177 -95 -98 -96 0
-178 -175 -177 95 98 -96 0
-178 -175 -177 -95 -98 -96 0
180 177 -95 0
180 -177 95 0
-180 177 95 0
-180 -177 -95 0
179 98 -96 0
179 -98 96 0
-179 98 96 0
-179 -98 -96 0
181 -178 180 0
181 -178 94 0
-181 178 180 0
-181 178 94 0
181 -178 93 -96 0
181 -178 -93 96 0
-181 178 93 -96 0
-181 178 -93 96 0
181 178 -180 93 96 -94 0
181 178 -180 -93 -96 -94 0
-181 -178 -180 93 96 -94 0
-181 -178 -180 -93 -96 -94 0
183 180 -93 0
183 -180 93 0
-183 180 93 0
-183 -180 -93 0
182 96 -94 0
182 -96 94 0
-182 96 94 0
-182 -96 -94 0
184 -181 183 0
184 -181 92 0
-184 181 183 0
-184 181 92 0
184 -181 91 -94 0
184 -181 -91 94 0
-184 181 91 -94 0
-184 181 -91 94 0
184 181 -183 91 94 -92 0
184 181 -183 -91 -94 -92 0
-184 -181 -183 91 94 -92 0
-184 -181 -183 -91 -94 -92 0
186 183 -91 0
186 -183 91 0
-186 183 91 0
-186 -183 -91 0
185 94 -92 0
185 -94 92 0
-185 94 92 0
-185 -94 -92 0
187 -184 186 0
187 -184 90 0
-187 184 186 0
-187 184 90 0
187 -184 89 -92 0
187 -184 -89 92 0
-187 184 89 -92 0
-187 184 -89 92 0
187 184 -186 89 92 -90 0
187 184 -186 -89 -92 -90 0
-187 -184 -186 89 92 -90 0
-187 -184 -186 -89 -92 -90 0
189 186 -89 0
189 -186 89 0
-189 186 89 0
-189 -186 -89 0
188 92 -90 0
188 -92 90 0
-188 92 90 0
-188 -92 -90 0
190 -187 189 0
190 -187 88 0
-190 187 189 0
-190 187 88 0
190 -187 87 -90 0
190 -187 -87 90 0
-190 187 87 -90 0
-190 187 -87 90 0
190 187 -189 87 90 -88 0
190 187 -189 -87 -90 -88 0
-190 -187 -189 87 90 -88 0
-190 -187 -189 -87 -90 -88 0
192 189 -87 0
192 -189 87 0
-192 189 87 0
-192 -189 -87 0
191 90 -88 0
191 -90 88 0
-191 90 88 0
-191 -90 -88 0
193 -190 192 0
193 -190 86 0
-193 190 192 0
-193 190 86 0
193 -190 85 -88 0
193 -190 -85 88 0
-193 190 85 -88 0
-193 190 -85 88 0
193 190 -192 85 88 -86 0
193 190 -192 -85 -88 -86 0
-193 -190 -192 85 88 -86 0
-193 -190 -192 -85 -88 -86 0
195 192 -85 0
195 -192 85 0
-195 192 85 0
-195 -192 -85 0
194 88 -86 0
194 -88 86 0
-194 88 86 0
-194 -88 -86 0
196 -193 195 0
196 -193 84 0
-196 193 195 0
-196 193 84 0
196 -193 83 -86 0
196 -193 -83 86 0
-196 193 83 -86 0
-196 193 -83 86 0
196 193 -195 83 86 -84 0
196 193 -195 -83 -86 -84 0
-196 -193 -195 83 86 -84 0
-196 -193 -195 -83 -86 -84 0
198 195 -83 0
198 -195 83 0
-198 195 83 0
-198 -195 -83 0
197 86 -84 0
197 -86 84 0
-197 86 84 0
-197 -86 -84 0
199 -196 198 0
199 -196 82 0
-199 196 198 0
-199 196 82 0
199 -196 81 -84 0
199 -196 -81 84 0
-199 196 81 -84 0
-199 196 -81 84 0
199 196 -198 81 84 -82 0
199 196 -198 -81 -84 -82 0
-199 -196 -198 81 84 -82 0
-199 -196 -198 -81 -84 -82 0
201 198 -81 0
201 -198 81 0
-201 198 81 0
-201 -198 -81 0
200 84 -82 0
200 -84 82 0
-200 84 82 0
-200 -84 -82 0
202 -199 201 0
202 -199 80 0
-202 199 201 0
-202 199 80 0
202 -199 79 -82 0
202 -199 -79 82 0
-202 199 79 -82 0
-202 199 -79 82 0
202 199 -201 79 82 -80 0
202 199 -201 -79 -82 -80 0
-202 -199 -201 79 82 -80 0
-202 -199 -201 -79 -82 -80 0
204 201 -79 0
204 -201 79 0
-204 201 79 0
-204 -201 -79 0
203 82 -80 0
203 -82 80 0
-203 82 80 0
-203 -82 -80 0
205 -202 204 0
205 -202 78 0
-205 202 204 0
-205 202 78 0
205 -202 77 -80 0
205 -202 -77 80 0
-205 202 77 -80 0
-205 202 -77 80 0
205 202 -204 77 80 -78 0
205 202 -204 -77 -80 -78 0
-205 -202 -204 77 80 -78 0
-205 -202 -204 -77 -80 -78 0
207 204 -77 0
207 -204 77 0
-207 204 77 0
-207 -204 -77 0
206 80 -78 0
206 -80 78 0
-206 80 78 0
-206 -80 -78 0
208 -205 207 0
208 -205 76 0
-208 205 207 0
-208 205 76 0
208 -205 75 -78 0
208 -205 -75 78 0
-208 205 75 -78 0
-208 205 -75 78 0
208 205 -207 75 78 -76 0
208 205 -207 -75 -78 -76 0
-208 -205 -207 75 78 -76 0
-208 -205 -207 -75 -78 -76 0
210 207 -75 0
210 -207 75 0
-210 207 75 0
-210 -207 -75 0
209 78 -76 0
209 -78 76 0
-209 78 76 0
-209 -78 -76 0
211 -208 210 0
211 -208 74 0
-211 208 210 0
-211 208 74 0
211 -208 73 -76 0
211 -208 -73 76 0
-211 208 73 -76 0
-211 208 -73 76 0
211 208 -210 73 76 -74 0
211 208 -210 -73 -76 -74 0
-211 -208 -210 73 76 -74 0
-211 -208 -210 -73 -76 -74 0
213 210 -73 0
213 -210 73 0
-213 210 73 0
-213 -210 -73 0
212 76 -74 0
212 -76 74 0
-212 76 74 0
-212 -76 -74 0
214 -211 213 0
214 -211 72 0
-214 211 213 0
-214 211 72 0
214 -211 71 -74 0
214 -211 -71 74 0
-214 211 71 -74 0
-214 211 -71 74 0
214 211 -213 71 74 -72 0
214 211 -213 -71 -74 -72 0
-214 -211 -213 71 74 -72 0
-214 -211 -213 -71 -74 -72 0
216 213 -71 0
216 -213 71 0
-216 213 71 0
-216 -213 -71 0
215 74 -72 0
215 -74 72 0
-215 74 72 0
-215 -74 -72 0
217 -214 216 0
217 -214 70 0
-217 214 216 0
-217 214 70 0
217 -214 69 -72 0
217 -214 -69 72 0
-217 214 69 -72 0
-217 214 -69 72 0
217 214 -216 69 72 -70 0
217 214 -216 -69 -72 -70 0
-217 -214 -216 69 72 -70 0
-217 -214 -216 -69 -72 -70 0
219 216 -69 0
219 -216 69 0
-219 216 69 0
-219 -216 -69 0
218 72 -70 0
218 -72 70 0
-218 72 70 0
-218 -72 -70 0
220 -217 219 0
220 -217 68 0
-220 217 219 0
-220 217 68 0
220 -217 67 -70 0
220 -217 -67 70 0
-220 217 67 -70 0
-220 217 -67 70 0
220 217 -219 67 70 -68 0
220 217 -219 -67 -70 -68 0
-220 -217 -219 67 70 -68 0
-220 -217 -219 -67 -70 -68 0
222 219 -67 0
222 -219 67 0
-222 219 67 0
-222 -219 -67 0
221 70 -68 0
221 -70 68 0
-221 70 68 0
-221 -70 -68 0
223 -220 222 0
223 -220 66 0
-223 220 222 0
-223 220 66 0
223 -220 65 -68 0
223 -220 -65 68 0
-223 220 65 -68 0
-223 220 -65 68 0
223 220 -222 65 68 -66 0
223 220 -222 -65 -68 -66 0
-223 -220 -222 65 68 -66 0
-223 -220 -222 -65 -68 -66 0
225 222 -65 0
225 -222 65 0
-225 222 65 0
-225 -222 -65 0
224 68 -66 0
224 -68 66 0
-224 68 66 0
-224 -68 -66 0
226 -223 225 0
226 -223 64 0
-226 223 225 0
-226 223 64 0
226 -223 63 -66 0
226 -223 -63 66 0
-226 223 63 -66 0
-226 223 -63 66 0
226 223 -225 63 66 -64 0
226 223 -225 -63 -66 -64 0
-226 -223 -225 63 66 -64 0
-226 -223 -225 -63 -66 -64 0
228 225 -63 0
228 -225 63 0
-228 225 63 0
-228 -225 -63 0
227 66 -64 0
227 -66 64 0
-227 66 64 0
-227 -66 -64 0
229 -226 228 0
229 -226 62 0
-229 226 228 0
-229 226 62 0
229 -226 61 -64 0
229 -226 -61 64 0
-229 226 61 -64 0
-229 226 -61 64 0
229 226 -228 61 64 -62 0
229 226 -228 -61 -64 -62 0
-229 -226 -228 61 64 -62 0
-229 -226 -228 -61 -64 -62 0
231 228 -61 0
231 -228 61 0
-231 228 61 0
-231 -228 -61 0
230 64 -62 0
230 -64 62 0
-230 64 62 0
-230 -64 -62 0
232 -229 231 0
232 -229 60 0
-232 229 231 0
-232 229 60 0
232 -229 59 -62 0
232 -229 -59 62 0
-232 229 59 -62 0
-232 229 -59 62 0
232 229 -231 59 62 -60 0
232 229 -231 -59 -62 -60 0
-232 -229 -231 59 62 -60 0
-232 -229 -231 -59 -62 -60 0
234 231 -59 0
234 -231 59 0
-234 231 59 0
-234 -231 -59 0
233 62 -60 0
233 -62 60 0
-233 62 60 0
-233 -62 -60 0
235 -232 234 0
235 -232 58 0
-235 232 234 0
-235 232 58 0
235 -232 57 -60 0
235 -232 -57 60 0
-235 232 57 -60 0
-235 232 -57 60 0
235 232 -234 57 60 -58 0
235 232 -234 -57 -60 -58 0
-235 -232 -234 57 60 -58 0
-235 -232 -234 -57 -60 -58 0
237 234 -57 0
237 -234 57 0
-237 234 57 0
-237 -234 -57 0
236 60 -58 0
236 -60 58 0
-236 60 58 0
-236 -60 -58 0
238 -235 237 0
238 -235 56 0
-238 235 237 0
-238 235 56 0
238 -235 55 -58 0
238 -235 -55 58 0
-238 235 55 -58 0
-238 235 -55 58 0
238 235 -237 55 58 -56 0
238 235 -237 -55 -58 -56 0
-238 -235 -237 55 58 -56 0
-238 -235 -237 -55 -58 -56 0
240 237 -55 0
240 -237 55 0
-240 237 55 0
-240 -237 -55 0
239 58 -56 0
239 -58 56 0
-239 58 56 0
-239 -58 -56 0
241 -238 240 0
241 -238 54 0
-241 238 240 0
-241 238 54 0
241 -238 53 -56 0
241 -238 -53 56 0
-241 238 53 -56 0
-241 238 -53 56 0
241 238 -240 53 56 -54 0
241 238 -240 -53 -56 -54 0
-241 -238 -240 53 56 -54 0
-241 -238 -240 -53 -56 -54 0
243 240 -53 0
243 -240 53 0
-243 240 53 0
-243 -240 -53 0
242 56 -54 0
242 -56 54 0
-242 56 54 0
-242 -56 -54 0
244 -241 243 0
244 -241 52 0
-244 241 243 0
-244 241 52 0
244 -241 51 -54 0
244 -241 -51 54 0
-244 241 51 -54 0
-244 241 -51 54 0
244 241 -243 51 54 -52 0
244 241 -243 -51 -54 -52 0
-244 -241 -243 51 54 -52 0
-244 -241 -243 -51 -54 -52 0
246 243 -51 0
246 -243 51 0
-246 243 51 0
-246 -243 -51 0
245 54 -52 0
245 -54 52 0
-245 54 52 0
-245 -54 -52 0
247 -244 246 0
247 -244 50 0
-247 244 246 0
-247 244 50 0
247 -244 49 -52 0
247 -244 -49 52 0
-247 244 49 -52 0
-247 244 -49 52 0
247 244 -246 49 52 -50 0
247 244 -246 -49 -52 -50 0
-247 -244 -246 49 52 -50 0
-247 -244 -246 -49 -52 -50 0
249 246 -49 0
249 -246 49 0
-249 246 49 0
-249 -246 -49 0
248 52 -50 0
248 -52 50 0
-248 52 50 0
-248 -52 -50 0
250 -247 249 0
250 -247 48 0
-250 247 249 0
-250 247 48 0
250 -247 47 -50 0
250 -247 -47 50 0
-250 247 47 -50 0
-250 247 -47 50 0
250 247 -249 47 50 -48 0
250 247 -249 -47 -50 -48 0
-250 -247 -249 47 50 -48 0
-250 -247 -249 -47 -50 -48 0
252 249 -47 0
252 -249 47 0
-252 249 47 0
-252 -249 -47 0
251 50 -48 0
251 -50 48 0
-251 50 48 0
-251 -50 -48 0
253 -250 252 0
253 -250 46 0
-253 250 252 0
-253 250 46 0
253 -250 45 -48 0
253 -250 -45 48 0
-253 250 45 -48 0
-253 250 -45 48 0
253 250 -252 45 48 -46 0
253 250 -252 -45 -48 -46 0
-253 -250 -252 45 48 -46 0
-253 -250 -252 -45 -48 -46 0
255 252 -45 0
255 -252 45 0
-255 252 45 0
-255 -252 -45 0
254 48 -46 0
254 -48 46 0
-254 48 46 0
-254 -48 -46 0
256 -253 255 0
256 -253 44 0
-256 253 255 0
-256 253 44 0
256 -253 43 -46 0
256 -253 -43 46 0
-256 253 43 -46 0
-256 253 -43 46 0
256 253 -255 43 46 -44 0
256 253 -255 -43 -46 -44 0
-256 -253 -255 43 46 -44 0
-256 -253 -255 -43 -46 -44 0
258 255 -43 0
258 -255 43 0
-258 255 43 0
-258 -255 -43 0
257 46 -44 0
257 -46 44 0
-257 46 44 0
-257 -46 -44 0
259 -256 258 0
259 -256 42 0
-259 256 258 0
-259 256 42 0
259 -256 41 -44 0
259 -256 -41 44 0
-259 256 41 -44 0
-259 256 -41 44 0
259 256 -258 41 44 -42 0
259 256 -258 -41 -44 -42 0
-259 -256 -258 41 44 -42 0
-259 -256 -258 -41 -44 -42 0
261 258 -41 0
261 -258 41 0
-261 258 41 0
-261 -258 -41 0
260 44 -42 0
260 -44 42 0
-260 44 42 0
-260 -44 -42 0
262 -259 261 0
262 -259 40 0
-262 259 261 0
-262 259 40 0
262 -259 39 -42 0
262 -259 -39 42 0
-262 259 39 -42 0
-262 259 -39 42 0
262 259 -261 39 42 -40 0
262 259 -261 -39 -42 -40 0
-262 -259 -261 39 42 -40 0
-262 -259 -261 -39 -42 -40 0
264 261 -39 0
264 -261 39 0
-264 261 39 0
-264 -261 -39 0
263 42 -40 0
263 -42 40 0
-263 42 40 0
-263 -42 -40 0
265 -262 264 0
265 -262 38 0
-265 262 264 0
-265 262 38 0
265 -262 37 -40 0
265 -262 -37 40 0
-265 262 37 -40 0
-265 262 -37 40 0
265 262 -264 37 40 -38 0
265 262 -264 -37 -40 -38 0
-265 -262 -264 37 40 -38 0
-265 -262 -264 -37 -40 -38 0
267 264 -37 0
267 -264 37 0
-267 264 37 0
-267 -264 -37 0
266 40 -38 0
266 -40 38 0
-266 40 38 0
-266 -40 -38 0
268 -265 267 0
268 -265 36 0
-268 265 267 0
-268 265 36 0
268 -265 35 -38 0
268 -265 -35 38 0
-268 265 35 -38 0
-268 265 -35 38 0
268 265 -267 35 38 -36 0
268 265 -267 -35 -38 -36 0
-268 -265 -267 35 38 -36 0
-268 -265 -267 -35 -38 -36 0
270 267 -35 0
270 -267 35 0
-270 267 35 0
-270 -267 -35 0
269 38 -36 0
269 -38 36 0
-269 38 36 0
-269 -38 -36 0
271 -268 270 0
271 -268 34 0
-271 268 270 0
-271 268 34 0
271 -268 33 -36 0
271 -268 -33 36 0
-271 268 33 -36 0
-271 268 -33 36 0
271 268 -270 33 36 -34 0
271 268 -270 -33 -36 -34 0
-271 -268 -270 33 36 -34 0
-271 -268 -270 -33 -36 -34 0
273 270 -33 0
273 -270 33 0
-273 270 33 0
-273 -270 -33 0
272 36 -34 0
272 -36 34 0
-272 36 34 0
-272 -36 -34 0
274 -271 273 0
274 -271 32 0
-274 271 273 0
-274 271 32 0
274 -271 31 -34 0
274 -271 -31 34 0
-274 271 31 -34 0
-274 271 -31 34 0
274 271 -273 31 34 -32 0
274 271 -273 -31 -34 -32 0
-274 -271 -273 31 34 -32 0
-274 -271 -273 -31 -34 -32 0
276 273 -31 0
276 -273 31 0
-276 273 31 0
-276 -273 -31 0
275 34 -32 0
275 -34 32 0
-275 34 32 0
-275 -34 -32 0
277 -274 276 0
277 -274 30 0
-277 274 276 0
-277 274 30 0
277 -274 29 -32 0
277 -274 -29 32 0
-277 274 29 -32 0
-277 274 -29 32 0
277 274 -276 29 32 -30 0
277 274 -276 -29 -32 -30 0
-277 -274 -276 29 32 -30 0
-277 -274 -276 -29 -32 -30 0
279 276 -29 0
279 -276 29 0
-279 276 29 0
-279 -276 -29 0
278 32 -30 0
278 -32 30 0
-278 32 30 0
-278 -32 -30 0
280 -277 279 0
280 -277 28 0
-280 277 279 0
-280 277 28 0
280 -277 27 -30 0
280 -277 -27 30 0
-280 277 27 -30 0
-280 277 -27 30 0
280 277 -279 27 30 -28 0
280 277 -279 -27 -30 -28 0
-280 -277 -279 27 30 -28 0
-280 -277 -279 -27 -30 -28 0
282 279 -27 0
282 -279 27 0
-282 279 27 0
-282 -279 -27 0
281 30 -28 0
281 -30 28 0
-281 30 28 0
-281 -30 -28 0
283 -280 282 0
283 -280 26 0
-283 280 282 0
-283 280 26 0
283 -280 25 -28 0
283 -280 -25 28 0
-283 280 25 -28 0
-283 280 -25 28 0
283 280 -282 25 28 -26 0
283 280 -282 -25 -28 -26 0
-283 -280 -282 25 28 -26 0
-283 -280 -282 -25 -28 -26 0
285 282 -25 0
285 -282 25 0
-285 282 25 0
-285 -282 -25 0
284 28 -26 0
284 -28 26 0
-284 28 26 0
-284 -28 -26 0
286 -283 285 0
286 -283 24 0
-286 283 285 0
-286 283 24 0
286 -283 23 -26 0
286 -283 -23 26 0
-286 283 23 -26 0
-286 283 -23 26 0
286 283 -285 23 26 -24 0
286 283 -285 -23 -26 -24 0
-286 -283 -285 23 26 -24 0
-286 -283 -285 -23 -26 -24 0
288 285 -23 0
288 -285 23 0
-288 285 23 0
-288 -285 -23 0
287 26 -24 0
287 -26 24 0
-287 26 24 0
-287 -26 -24 0
289 -286 288 0
289 -286 22 0
-289 286 288 0
-289 286 22 0
289 -286 21 -24 0
289 -286 -21 24 0
-289 286 21 -24 0
-289 286 -21 24 0
289 286 -288 21 24 -22 0
289 286 -288 -21 -24 -22 0
-289 -286 -288 21 24 -22 0
-289 -286 -288 -21 -24 -22 0
291 288 -21 0
291 -288 21 0
-291 288 21 0
-291 -288 -21 0
290 24 -22 0
290 -24 22 0
-290 24 22 0
-290 -24 -22 0
292 -289 291 0
292 -289 20 0
-292 289 291 0
-292 289 20 0
292 -289 19 -22 0
292 -289 -19 22 0
-292 289 19 -22 0
-292 289 -19 22 0
292 289 -291 19 22 -20 0
292 289 -291 -19 -22 -20 0
-292 -289 -291 19 22 -20 0
-292 -289 -291 -19 -22 -20 0
294 291 -19 0
294 -291 19 0
-294 291 19 0
-294 -291 -19 0
293 22 -20 0
293 -22 20 0
-293 22 20 0
-293 -22 -20 0
295 -292 294 0
295 -292 18 0
-295 292 294 0
-295 292 18 0
295 -292 17 -20 0
295 -292 -17 20 0
-295 292 17 -20 0
-295 292 -17 20 0
295 292 -294 17 20 -18 0
295 292 -294 -17 -20 -18 0
-295 -292 -294 17 20 -18 0
-295 -292 -294 -17 -20 -18 0
297 294 -17 0
297 -294 17 0
-297 294 17 0
-297 -294 -17 0
296 20 -18 0
296 -20 18 0
-296 20 18 0
-296 -20 -18 0
298 -295 297 0
298 -295 16 0
-298 295 297 0
-298 295 16 0
298 -295 15 -18 0
298 -295 -15 18 0
-298 295 15 -18 0
-298 295 -15 18 0
298 295 -297 15 18 -16 0
298 295 -297 -15 -18 -16 0
-298 -295 -297 15 18 -16 0
-298 -295 -297 -15 -18 -16 0
300 297 -15 0
300 -297 15 0
-300 297 15 0
-300 -297 -15 0
299 18 -16 0
299 -18 16 0
-299 18 16 0
-299 -18 -16 0
301 -298 300 0
301 -298 14 0
-301 298 300 0
-301 298 14 0
301 -298 13 -16 0
301 -298 -13 16 0
-301 298 13 -16 0
-301 298 -13 16 0
301 298 -300 13 16 -14 0
301 298 -300 -13 -16 -14 0
-301 -298 -300 13 16 -14 0
-301 -298 -300 -13 -16 -14 0
303 300 -13 0
303 -300 13 0
-303 300 13 0
-303 -300 -13 0
302 16 -14 0
302 -16 14 0
-302 16 14 0
-302 -16 -14 0
304 -301 303 0
304 -301 12 0
-304 301 303 0
-304 301 12 0
304 -301 11 -14 0
304 -301 -11 14 0
-304 301 11 -14 0
-304 301 -11 14 0
304 301 -303 11 14 -12 0
304 301 -303 -11 -14 -12 0
-304 -301 -303 11 14 -12 0
-304 -301 -303 -11 -14 -12 0
306 303 -11 0
306 -303 11 0
-306 303 11 0
-306 -303 -11 0
305 14 -12 0
305 -14 12 0
-305 14 12 0
-305 -14 -12 0
307 -304 306 0
307 -304 10 0
-307 304 306 0
-307 304 10 0
307 -304 9 -12 0
307 -304 -9 12 0
-307 304 9 -12 0
-307 304 -9 12 0
307 304 -306 9 12 -10 0
307 304 -306 -9 -12 -10 0
-307 -304 -306 9 12 -10 0
-307 -304 -306 -9 -12 -10 0
309 306 -9 0
309 -306 9 0
-309 306 9 0
-309 -306 -9 0
308 12 -10 0
308 -12 10 0
-308 12 10 0
-308 -12 -10 0
310 -307 309 0
310 -307 8 0
-310 307 309 0
-310 307 8 0
310 -307 7 -10 0
310 -307 -7 10 0
-310 307 7 -10 0
-310 307 -7 10 0
310 307 -309 7 10 -8 0
310 307 -309 -7 -10 -8 0
-310 -307 -309 7 10 -8 0
-310 -307 -309 -7 -10 -8 0
312 309 -7 0
312 -309 7 0
-312 309 7 0
-312 -309 -7 0
311 10 -8 0
311 -10 8 0
-311 10 8 0
-311 -10 -8 0
313 -310 312 0
313 -310 6 0
-313 310 312 0
-313 310 6 0
313 -310 5 -8 0
313 -310 -5 8 0
-313 310 5 -8 0
-313 310 -5 8 0
313 310 -312 5 8 -6 0
313 310 -312 -5 -8 -6 0
-313 -310 -312 5 8 -6 0
-313 -310 -312 -5 -8 -6 0
315 312 -5 0
315 -312 5 0
-315 312 5 0
-315 -312 -5 0
314 8 -6 0
314 -8 6 0
-314 8 6 0
-314 -8 -6 0
316 -313 315 0
316 -313 4 0
-316 313 315 0
-316 313 4 0
316 -313 3 -6 0
316 -313 -3 6 0
-316 313 3 -6 0
-316 313 -3 6 0
316 313 -315 3 6 -4 0
316 313 -315 -3 -6 -4 0
-316 -313 -315 3 6 -4 0
-316 -313 -315 -3 -6 -4 0
318 315 -3 0
318 -315 3 0
-318 315 3 0
-318 -315 -3 0
317 6 -4 0
317 -6 4 0
-317 6 4 0
-317 -6 -4 0
319 -316 318 0
319 -316 2 0
-319 316 318 0
-319 316 2 0
319 -316 1 -4 0
319 -316 -1 4 0
-319 316 1 -4 0
-319 316 -1 4 0
319 316 -318 1 4 -2 0
319 316 -318 -1 -4 -2 0
-319 -316 -318 1 4 -2 0
-319 -316 -318 -1 -4 -2 0
321 318 -1 0
321 -318 1 0
-321 318 1 0
-321 -318 -1 0
320 4 -2 0
320 -4 2 0
-320 4 2 0
-320 -4 -2 0
-321 0
-318 0
-320 0
-315 0
-317 0
-312 0
-314 0
-309 0
-311 0
-306 0
-308 0
-303 0
-305 0
-300 0
-302 0
-297 0
-299 0
-294 0
-296 0
-291 0
-293 0
-288 0
-290 0
-285 0
-287 0
-282 0
-284 0
-279 0
-281 0
-276 0
-278 0
-273 0
-275 0
-270 0
-272 0
-267 0
-269 0
-264 0
-266 0
-261 0
-263 0
-258 0
-260 0
-255 0
-257 0
-252 0
-254 0
-249 0
-251 0
-246 0
-248 0
-243 0
-245 0
-240 0
-242 0
-237 0
-239 0
-234 0
-236 0
-231 0
-233 0
-228 0
-230 0
-225 0
-227 0
-222 0
-224 0
-219 0
-221 0
-216 0
-218 0
-213 0
-215 0
-210 0
-212 0
-207 0
-209 0
-204 0
-206 0
-201 0
-203 0
-198 0
-200 0
-195 0
-197 0
-192 0
-194 0
-189 0
-191 0
-186 0
-188 0
-183 0
-185 0
-180 0
-182 0
-177 0
-179 0
-174 0
-176 0
-171 0
-173 0
-168 0
-170 0
-165 0
-167 0
-162 0
-164 0
-159 0
-161 0
-156 0
-158 0
-153 0
-155 0
-150 0
-152 0
-147 0
-149 0
-144 0
-146 0
-141 0
-143 0
-138 0
-140 0
-131 0
-137 0
